(set-info :Origin "This instance was generated by: BanditFuzz-- an RL fuzzer for SMT solvers" )
(set-info :Author "Joe Scott, Fed Mora, Vijay Ganesh" )
(set-info :Contact "Joe Scott, joseph.scott@uwaterloo.ca")
(set-logic QF_BV)
(declare-const bool_0 Bool)
(declare-const bool_1 Bool)
(declare-const bool_2 Bool)
(declare-const bool_3 Bool)
(declare-const bool_4 Bool)
(declare-const bv_0 (_ BitVec 32))
(declare-const bv_1 (_ BitVec 32))
(declare-const bv_2 (_ BitVec 32))
(declare-const bv_3 (_ BitVec 32))
(declare-const bv_4 (_ BitVec 32))
(assert (bvult (bvnand (bvurem bv_2 #xd84ece13 ) (bvshl bv_0 #x132274d9 )) (bvxnor (bvsdiv #xca8f5dfb  #xae23b6b1 ) (bvsrem bv_0 #x7afff20f ))))
(assert (=> (bvslt (bvsrem bv_4 #xfd090100 ) (bvor bv_4 bv_1)) (bvslt (bvudiv #x5c73a07c  bv_4) (bvsub #x7dc63882  bv_3))))
(assert (not (bvsgt (bvnand #xb6910335  #xd0e143a4 ) (bvnand bv_2 bv_3))))
(assert (bvslt (bvsdiv (bvor #xbbd21107  bv_2) (bvand bv_3 #x6f69fe4d )) (bvadd (bvxor #x8af600bb  bv_3) (bvsub bv_1 #x79c7253e ))))
(assert (xor (not (or false false)) (bvule (bvand #x42c1259a  #x66868c74 ) (bvlshr bv_2 #xe390ddeb ))))
(check-sat)
(exit)
